
;this file is automatically generated: Fri Oct 30 17:04:02 CST 2020

;declarations generated

(declare-fun oclExcludes ( Int Int) Bool)
(declare-fun obj_7ef051bf_adc1_47fa_91ac_b6bf10c21de9 ( Int) Int)
(declare-fun Cardinality ( Int) Int)
(declare-fun type_c24740d0_9eca_4bd5_8af2_381de58bb0e2_Class7 ( Int) Bool)
(declare-fun type_c24740d0_9eca_4bd5_8af2_381de58bb0e2_Class8 ( Int) Bool)
(declare-fun type_c24740d0_9eca_4bd5_8af2_381de58bb0e2_Class5 ( Int) Bool)
(declare-fun type_c24740d0_9eca_4bd5_8af2_381de58bb0e2_Class6 ( Int) Bool)
(declare-fun type_c24740d0_9eca_4bd5_8af2_381de58bb0e2_Class9 ( Int) Bool)
(declare-fun type_c24740d0_9eca_4bd5_8af2_381de58bb0e2_Class0 ( Int) Bool)
(declare-fun type_c24740d0_9eca_4bd5_8af2_381de58bb0e2_Class3 ( Int) Bool)
(declare-fun type_c24740d0_9eca_4bd5_8af2_381de58bb0e2_Class4 ( Int) Bool)
(declare-fun type_c24740d0_9eca_4bd5_8af2_381de58bb0e2_Class1 ( Int) Bool)
(declare-fun type_c24740d0_9eca_4bd5_8af2_381de58bb0e2_Class2 ( Int) Bool)
(declare-fun type_c24740d0_9eca_4bd5_8af2_381de58bb0e2_Class46 ( Int) Bool)
(declare-fun type_c24740d0_9eca_4bd5_8af2_381de58bb0e2_Class45 ( Int) Bool)
(declare-fun type_c24740d0_9eca_4bd5_8af2_381de58bb0e2_Class44 ( Int) Bool)
(declare-fun type_c24740d0_9eca_4bd5_8af2_381de58bb0e2_Class43 ( Int) Bool)
(declare-fun type_c24740d0_9eca_4bd5_8af2_381de58bb0e2_Class42 ( Int) Bool)
(declare-fun type_c24740d0_9eca_4bd5_8af2_381de58bb0e2_Class41 ( Int) Bool)
(declare-fun type_c24740d0_9eca_4bd5_8af2_381de58bb0e2_Class40 ( Int) Bool)
(declare-fun type_c24740d0_9eca_4bd5_8af2_381de58bb0e2_Class49 ( Int) Bool)
(declare-fun type_c24740d0_9eca_4bd5_8af2_381de58bb0e2_Class48 ( Int) Bool)
(declare-fun type_c24740d0_9eca_4bd5_8af2_381de58bb0e2_Class47 ( Int) Bool)
(declare-fun type_c24740d0_9eca_4bd5_8af2_381de58bb0e2_Class55 ( Int) Bool)
(declare-fun type_c24740d0_9eca_4bd5_8af2_381de58bb0e2_Class54 ( Int) Bool)
(declare-fun type_c24740d0_9eca_4bd5_8af2_381de58bb0e2_Class53 ( Int) Bool)
(declare-fun type_c24740d0_9eca_4bd5_8af2_381de58bb0e2_Class52 ( Int) Bool)
(declare-fun type_c24740d0_9eca_4bd5_8af2_381de58bb0e2_Class51 ( Int) Bool)
(declare-fun type_c24740d0_9eca_4bd5_8af2_381de58bb0e2_Class50 ( Int) Bool)
(declare-fun type_c24740d0_9eca_4bd5_8af2_381de58bb0e2_Class24 ( Int) Bool)
(declare-fun type_c24740d0_9eca_4bd5_8af2_381de58bb0e2_Class23 ( Int) Bool)
(declare-fun type_c24740d0_9eca_4bd5_8af2_381de58bb0e2_Class22 ( Int) Bool)
(declare-fun type_c24740d0_9eca_4bd5_8af2_381de58bb0e2_Class21 ( Int) Bool)
(declare-fun type_c24740d0_9eca_4bd5_8af2_381de58bb0e2_Class20 ( Int) Bool)
(declare-fun type_c24740d0_9eca_4bd5_8af2_381de58bb0e2_Class29 ( Int) Bool)
(declare-fun type_c24740d0_9eca_4bd5_8af2_381de58bb0e2_Class28 ( Int) Bool)
(declare-fun type_c24740d0_9eca_4bd5_8af2_381de58bb0e2_Class27 ( Int) Bool)
(declare-fun type_c24740d0_9eca_4bd5_8af2_381de58bb0e2_Class26 ( Int) Bool)
(declare-fun type_c24740d0_9eca_4bd5_8af2_381de58bb0e2_Class25 ( Int) Bool)
(declare-fun type_c24740d0_9eca_4bd5_8af2_381de58bb0e2_Class35 ( Int) Bool)
(declare-fun type_c24740d0_9eca_4bd5_8af2_381de58bb0e2_Class34 ( Int) Bool)
(declare-fun type_c24740d0_9eca_4bd5_8af2_381de58bb0e2_Class33 ( Int) Bool)
(declare-fun type_c24740d0_9eca_4bd5_8af2_381de58bb0e2_Class32 ( Int) Bool)
(declare-fun type_c24740d0_9eca_4bd5_8af2_381de58bb0e2_Class31 ( Int) Bool)
(declare-fun type_c24740d0_9eca_4bd5_8af2_381de58bb0e2_Class30 ( Int) Bool)
(declare-fun type_c24740d0_9eca_4bd5_8af2_381de58bb0e2_Class39 ( Int) Bool)
(declare-fun type_c24740d0_9eca_4bd5_8af2_381de58bb0e2_Class38 ( Int) Bool)
(declare-fun type_c24740d0_9eca_4bd5_8af2_381de58bb0e2_Class37 ( Int) Bool)
(declare-fun type_c24740d0_9eca_4bd5_8af2_381de58bb0e2_Class36 ( Int) Bool)
(declare-fun type_c24740d0_9eca_4bd5_8af2_381de58bb0e2_Class13 ( Int) Bool)
(declare-fun type_c24740d0_9eca_4bd5_8af2_381de58bb0e2_Class12 ( Int) Bool)
(declare-fun type_c24740d0_9eca_4bd5_8af2_381de58bb0e2_Class11 ( Int) Bool)
(declare-fun type_c24740d0_9eca_4bd5_8af2_381de58bb0e2_Class10 ( Int) Bool)
(declare-fun type_c24740d0_9eca_4bd5_8af2_381de58bb0e2_Class19 ( Int) Bool)
(declare-fun type_c24740d0_9eca_4bd5_8af2_381de58bb0e2_Class18 ( Int) Bool)
(declare-fun type_c24740d0_9eca_4bd5_8af2_381de58bb0e2_Class17 ( Int) Bool)
(declare-fun type_c24740d0_9eca_4bd5_8af2_381de58bb0e2_Class16 ( Int) Bool)
(declare-fun type_c24740d0_9eca_4bd5_8af2_381de58bb0e2_Class15 ( Int) Bool)
(declare-fun type_c24740d0_9eca_4bd5_8af2_381de58bb0e2_Class14 ( Int) Bool)
(declare-fun oclSelect ( Int Bool) Int)
(declare-fun Enum0 ( Int) Int)
(declare-fun Enum1 ( Int) Int)
(declare-fun Enum2 ( Int) Int)
(declare-fun container_ ( Int) Int)
(declare-fun oclIncludes ( Int Int) Bool)
(declare-fun ObjAt ( Int Int) Int)

;formula(s) generated
(assert (forall ((p Int)) (=> ( type_c24740d0_9eca_4bd5_8af2_381de58bb0e2_Class33 p )  (and (>= ( Enum0 ( obj_7ef051bf_adc1_47fa_91ac_b6bf10c21de9 p )  )  0) (<= ( Enum0 ( obj_7ef051bf_adc1_47fa_91ac_b6bf10c21de9 p )  )  3)))))
(assert (! (forall ((v Int)) (=> (and (and ( type_c24740d0_9eca_4bd5_8af2_381de58bb0e2_Class33 v )  ( type_c24740d0_9eca_4bd5_8af2_381de58bb0e2_Class22 v ) ) ( type_c24740d0_9eca_4bd5_8af2_381de58bb0e2_Class39 v ) ) (= ( Enum0 ( obj_7ef051bf_adc1_47fa_91ac_b6bf10c21de9 v )  )  1))):named l0))
(assert (! (forall ((v Int)) (=> (and (and ( type_c24740d0_9eca_4bd5_8af2_381de58bb0e2_Class33 v )  ( type_c24740d0_9eca_4bd5_8af2_381de58bb0e2_Class22 v ) ) ( type_c24740d0_9eca_4bd5_8af2_381de58bb0e2_Class39 v ) ) (not (= ( Enum0 ( obj_7ef051bf_adc1_47fa_91ac_b6bf10c21de9 v )  )  1) ))):named l1))
(assert (! (exists ((o Int)) ( type_c24740d0_9eca_4bd5_8af2_381de58bb0e2_Class0 ( obj_7ef051bf_adc1_47fa_91ac_b6bf10c21de9 o )  ) ):named c0))
(assert (! (exists ((o Int)) (and (and (and (and (and ( type_c24740d0_9eca_4bd5_8af2_381de58bb0e2_Class1 ( obj_7ef051bf_adc1_47fa_91ac_b6bf10c21de9 o )  )  ( type_c24740d0_9eca_4bd5_8af2_381de58bb0e2_Class45 ( obj_7ef051bf_adc1_47fa_91ac_b6bf10c21de9 o )  ) ) ( type_c24740d0_9eca_4bd5_8af2_381de58bb0e2_Class12 ( obj_7ef051bf_adc1_47fa_91ac_b6bf10c21de9 o )  ) ) ( type_c24740d0_9eca_4bd5_8af2_381de58bb0e2_Class33 ( obj_7ef051bf_adc1_47fa_91ac_b6bf10c21de9 o )  ) ) ( type_c24740d0_9eca_4bd5_8af2_381de58bb0e2_Class22 ( obj_7ef051bf_adc1_47fa_91ac_b6bf10c21de9 o )  ) ) ( type_c24740d0_9eca_4bd5_8af2_381de58bb0e2_Class39 ( obj_7ef051bf_adc1_47fa_91ac_b6bf10c21de9 o )  ) )):named c1))
(assert (! (exists ((o Int)) (and (and (and (and (and (and (and (and (and ( type_c24740d0_9eca_4bd5_8af2_381de58bb0e2_Class10 ( obj_7ef051bf_adc1_47fa_91ac_b6bf10c21de9 o )  )  ( type_c24740d0_9eca_4bd5_8af2_381de58bb0e2_Class45 ( obj_7ef051bf_adc1_47fa_91ac_b6bf10c21de9 o )  ) ) ( type_c24740d0_9eca_4bd5_8af2_381de58bb0e2_Class12 ( obj_7ef051bf_adc1_47fa_91ac_b6bf10c21de9 o )  ) ) ( type_c24740d0_9eca_4bd5_8af2_381de58bb0e2_Class55 ( obj_7ef051bf_adc1_47fa_91ac_b6bf10c21de9 o )  ) ) ( type_c24740d0_9eca_4bd5_8af2_381de58bb0e2_Class33 ( obj_7ef051bf_adc1_47fa_91ac_b6bf10c21de9 o )  ) ) ( type_c24740d0_9eca_4bd5_8af2_381de58bb0e2_Class22 ( obj_7ef051bf_adc1_47fa_91ac_b6bf10c21de9 o )  ) ) ( type_c24740d0_9eca_4bd5_8af2_381de58bb0e2_Class29 ( obj_7ef051bf_adc1_47fa_91ac_b6bf10c21de9 o )  ) ) ( type_c24740d0_9eca_4bd5_8af2_381de58bb0e2_Class39 ( obj_7ef051bf_adc1_47fa_91ac_b6bf10c21de9 o )  ) ) ( type_c24740d0_9eca_4bd5_8af2_381de58bb0e2_Class50 ( obj_7ef051bf_adc1_47fa_91ac_b6bf10c21de9 o )  ) ) ( type_c24740d0_9eca_4bd5_8af2_381de58bb0e2_Class41 ( obj_7ef051bf_adc1_47fa_91ac_b6bf10c21de9 o )  ) )):named c2))
(assert (! (exists ((o Int)) ( type_c24740d0_9eca_4bd5_8af2_381de58bb0e2_Class11 ( obj_7ef051bf_adc1_47fa_91ac_b6bf10c21de9 o )  ) ):named c3))
(assert (! (exists ((o Int)) (and (and (and ( type_c24740d0_9eca_4bd5_8af2_381de58bb0e2_Class12 ( obj_7ef051bf_adc1_47fa_91ac_b6bf10c21de9 o )  )  ( type_c24740d0_9eca_4bd5_8af2_381de58bb0e2_Class33 ( obj_7ef051bf_adc1_47fa_91ac_b6bf10c21de9 o )  ) ) ( type_c24740d0_9eca_4bd5_8af2_381de58bb0e2_Class22 ( obj_7ef051bf_adc1_47fa_91ac_b6bf10c21de9 o )  ) ) ( type_c24740d0_9eca_4bd5_8af2_381de58bb0e2_Class39 ( obj_7ef051bf_adc1_47fa_91ac_b6bf10c21de9 o )  ) )):named c4))
(assert (! (exists ((o Int)) (and (and (and (and (and (and (and (and (and ( type_c24740d0_9eca_4bd5_8af2_381de58bb0e2_Class13 ( obj_7ef051bf_adc1_47fa_91ac_b6bf10c21de9 o )  )  ( type_c24740d0_9eca_4bd5_8af2_381de58bb0e2_Class45 ( obj_7ef051bf_adc1_47fa_91ac_b6bf10c21de9 o )  ) ) ( type_c24740d0_9eca_4bd5_8af2_381de58bb0e2_Class12 ( obj_7ef051bf_adc1_47fa_91ac_b6bf10c21de9 o )  ) ) ( type_c24740d0_9eca_4bd5_8af2_381de58bb0e2_Class55 ( obj_7ef051bf_adc1_47fa_91ac_b6bf10c21de9 o )  ) ) ( type_c24740d0_9eca_4bd5_8af2_381de58bb0e2_Class33 ( obj_7ef051bf_adc1_47fa_91ac_b6bf10c21de9 o )  ) ) ( type_c24740d0_9eca_4bd5_8af2_381de58bb0e2_Class22 ( obj_7ef051bf_adc1_47fa_91ac_b6bf10c21de9 o )  ) ) ( type_c24740d0_9eca_4bd5_8af2_381de58bb0e2_Class29 ( obj_7ef051bf_adc1_47fa_91ac_b6bf10c21de9 o )  ) ) ( type_c24740d0_9eca_4bd5_8af2_381de58bb0e2_Class39 ( obj_7ef051bf_adc1_47fa_91ac_b6bf10c21de9 o )  ) ) ( type_c24740d0_9eca_4bd5_8af2_381de58bb0e2_Class50 ( obj_7ef051bf_adc1_47fa_91ac_b6bf10c21de9 o )  ) ) ( type_c24740d0_9eca_4bd5_8af2_381de58bb0e2_Class41 ( obj_7ef051bf_adc1_47fa_91ac_b6bf10c21de9 o )  ) )):named c5))
(assert (! (exists ((o Int)) (and (and (and (and (and (and (and (and (and ( type_c24740d0_9eca_4bd5_8af2_381de58bb0e2_Class14 ( obj_7ef051bf_adc1_47fa_91ac_b6bf10c21de9 o )  )  ( type_c24740d0_9eca_4bd5_8af2_381de58bb0e2_Class45 ( obj_7ef051bf_adc1_47fa_91ac_b6bf10c21de9 o )  ) ) ( type_c24740d0_9eca_4bd5_8af2_381de58bb0e2_Class12 ( obj_7ef051bf_adc1_47fa_91ac_b6bf10c21de9 o )  ) ) ( type_c24740d0_9eca_4bd5_8af2_381de58bb0e2_Class55 ( obj_7ef051bf_adc1_47fa_91ac_b6bf10c21de9 o )  ) ) ( type_c24740d0_9eca_4bd5_8af2_381de58bb0e2_Class33 ( obj_7ef051bf_adc1_47fa_91ac_b6bf10c21de9 o )  ) ) ( type_c24740d0_9eca_4bd5_8af2_381de58bb0e2_Class22 ( obj_7ef051bf_adc1_47fa_91ac_b6bf10c21de9 o )  ) ) ( type_c24740d0_9eca_4bd5_8af2_381de58bb0e2_Class29 ( obj_7ef051bf_adc1_47fa_91ac_b6bf10c21de9 o )  ) ) ( type_c24740d0_9eca_4bd5_8af2_381de58bb0e2_Class39 ( obj_7ef051bf_adc1_47fa_91ac_b6bf10c21de9 o )  ) ) ( type_c24740d0_9eca_4bd5_8af2_381de58bb0e2_Class50 ( obj_7ef051bf_adc1_47fa_91ac_b6bf10c21de9 o )  ) ) ( type_c24740d0_9eca_4bd5_8af2_381de58bb0e2_Class41 ( obj_7ef051bf_adc1_47fa_91ac_b6bf10c21de9 o )  ) )):named c6))
(assert (! (exists ((o Int)) ( type_c24740d0_9eca_4bd5_8af2_381de58bb0e2_Class15 ( obj_7ef051bf_adc1_47fa_91ac_b6bf10c21de9 o )  ) ):named c7))
(assert (! (exists ((o Int)) (and (and (and (and (and ( type_c24740d0_9eca_4bd5_8af2_381de58bb0e2_Class16 ( obj_7ef051bf_adc1_47fa_91ac_b6bf10c21de9 o )  )  ( type_c24740d0_9eca_4bd5_8af2_381de58bb0e2_Class45 ( obj_7ef051bf_adc1_47fa_91ac_b6bf10c21de9 o )  ) ) ( type_c24740d0_9eca_4bd5_8af2_381de58bb0e2_Class12 ( obj_7ef051bf_adc1_47fa_91ac_b6bf10c21de9 o )  ) ) ( type_c24740d0_9eca_4bd5_8af2_381de58bb0e2_Class33 ( obj_7ef051bf_adc1_47fa_91ac_b6bf10c21de9 o )  ) ) ( type_c24740d0_9eca_4bd5_8af2_381de58bb0e2_Class22 ( obj_7ef051bf_adc1_47fa_91ac_b6bf10c21de9 o )  ) ) ( type_c24740d0_9eca_4bd5_8af2_381de58bb0e2_Class39 ( obj_7ef051bf_adc1_47fa_91ac_b6bf10c21de9 o )  ) )):named c8))
(assert (! (exists ((o Int)) ( type_c24740d0_9eca_4bd5_8af2_381de58bb0e2_Class17 ( obj_7ef051bf_adc1_47fa_91ac_b6bf10c21de9 o )  ) ):named c9))
(assert (! (exists ((o Int)) (and (and (and ( type_c24740d0_9eca_4bd5_8af2_381de58bb0e2_Class18 ( obj_7ef051bf_adc1_47fa_91ac_b6bf10c21de9 o )  )  ( type_c24740d0_9eca_4bd5_8af2_381de58bb0e2_Class25 ( obj_7ef051bf_adc1_47fa_91ac_b6bf10c21de9 o )  ) ) ( type_c24740d0_9eca_4bd5_8af2_381de58bb0e2_Class24 ( obj_7ef051bf_adc1_47fa_91ac_b6bf10c21de9 o )  ) ) ( type_c24740d0_9eca_4bd5_8af2_381de58bb0e2_Class39 ( obj_7ef051bf_adc1_47fa_91ac_b6bf10c21de9 o )  ) )):named c10))
(assert (! (exists ((o Int)) (and (and (and (and (and (and (and (and (and ( type_c24740d0_9eca_4bd5_8af2_381de58bb0e2_Class19 ( obj_7ef051bf_adc1_47fa_91ac_b6bf10c21de9 o )  )  ( type_c24740d0_9eca_4bd5_8af2_381de58bb0e2_Class45 ( obj_7ef051bf_adc1_47fa_91ac_b6bf10c21de9 o )  ) ) ( type_c24740d0_9eca_4bd5_8af2_381de58bb0e2_Class12 ( obj_7ef051bf_adc1_47fa_91ac_b6bf10c21de9 o )  ) ) ( type_c24740d0_9eca_4bd5_8af2_381de58bb0e2_Class55 ( obj_7ef051bf_adc1_47fa_91ac_b6bf10c21de9 o )  ) ) ( type_c24740d0_9eca_4bd5_8af2_381de58bb0e2_Class33 ( obj_7ef051bf_adc1_47fa_91ac_b6bf10c21de9 o )  ) ) ( type_c24740d0_9eca_4bd5_8af2_381de58bb0e2_Class22 ( obj_7ef051bf_adc1_47fa_91ac_b6bf10c21de9 o )  ) ) ( type_c24740d0_9eca_4bd5_8af2_381de58bb0e2_Class29 ( obj_7ef051bf_adc1_47fa_91ac_b6bf10c21de9 o )  ) ) ( type_c24740d0_9eca_4bd5_8af2_381de58bb0e2_Class39 ( obj_7ef051bf_adc1_47fa_91ac_b6bf10c21de9 o )  ) ) ( type_c24740d0_9eca_4bd5_8af2_381de58bb0e2_Class50 ( obj_7ef051bf_adc1_47fa_91ac_b6bf10c21de9 o )  ) ) ( type_c24740d0_9eca_4bd5_8af2_381de58bb0e2_Class41 ( obj_7ef051bf_adc1_47fa_91ac_b6bf10c21de9 o )  ) )):named c11))
(assert (! (exists ((o Int)) ( type_c24740d0_9eca_4bd5_8af2_381de58bb0e2_Class2 ( obj_7ef051bf_adc1_47fa_91ac_b6bf10c21de9 o )  ) ):named c12))
(assert (! (exists ((o Int)) ( type_c24740d0_9eca_4bd5_8af2_381de58bb0e2_Class20 ( obj_7ef051bf_adc1_47fa_91ac_b6bf10c21de9 o )  ) ):named c13))
(assert (! (exists ((o Int)) (and (and (and (and (and (and (and (and (and ( type_c24740d0_9eca_4bd5_8af2_381de58bb0e2_Class21 ( obj_7ef051bf_adc1_47fa_91ac_b6bf10c21de9 o )  )  ( type_c24740d0_9eca_4bd5_8af2_381de58bb0e2_Class45 ( obj_7ef051bf_adc1_47fa_91ac_b6bf10c21de9 o )  ) ) ( type_c24740d0_9eca_4bd5_8af2_381de58bb0e2_Class12 ( obj_7ef051bf_adc1_47fa_91ac_b6bf10c21de9 o )  ) ) ( type_c24740d0_9eca_4bd5_8af2_381de58bb0e2_Class33 ( obj_7ef051bf_adc1_47fa_91ac_b6bf10c21de9 o )  ) ) ( type_c24740d0_9eca_4bd5_8af2_381de58bb0e2_Class22 ( obj_7ef051bf_adc1_47fa_91ac_b6bf10c21de9 o )  ) ) ( type_c24740d0_9eca_4bd5_8af2_381de58bb0e2_Class16 ( obj_7ef051bf_adc1_47fa_91ac_b6bf10c21de9 o )  ) ) ( type_c24740d0_9eca_4bd5_8af2_381de58bb0e2_Class29 ( obj_7ef051bf_adc1_47fa_91ac_b6bf10c21de9 o )  ) ) ( type_c24740d0_9eca_4bd5_8af2_381de58bb0e2_Class39 ( obj_7ef051bf_adc1_47fa_91ac_b6bf10c21de9 o )  ) ) ( type_c24740d0_9eca_4bd5_8af2_381de58bb0e2_Class41 ( obj_7ef051bf_adc1_47fa_91ac_b6bf10c21de9 o )  ) ) ( type_c24740d0_9eca_4bd5_8af2_381de58bb0e2_Class51 ( obj_7ef051bf_adc1_47fa_91ac_b6bf10c21de9 o )  ) )):named c14))
(assert (! (exists ((o Int)) (and ( type_c24740d0_9eca_4bd5_8af2_381de58bb0e2_Class22 ( obj_7ef051bf_adc1_47fa_91ac_b6bf10c21de9 o )  )  ( type_c24740d0_9eca_4bd5_8af2_381de58bb0e2_Class39 ( obj_7ef051bf_adc1_47fa_91ac_b6bf10c21de9 o )  ) )):named c15))
(assert (! (exists ((o Int)) (and (and (and (and ( type_c24740d0_9eca_4bd5_8af2_381de58bb0e2_Class23 ( obj_7ef051bf_adc1_47fa_91ac_b6bf10c21de9 o )  )  ( type_c24740d0_9eca_4bd5_8af2_381de58bb0e2_Class25 ( obj_7ef051bf_adc1_47fa_91ac_b6bf10c21de9 o )  ) ) ( type_c24740d0_9eca_4bd5_8af2_381de58bb0e2_Class24 ( obj_7ef051bf_adc1_47fa_91ac_b6bf10c21de9 o )  ) ) ( type_c24740d0_9eca_4bd5_8af2_381de58bb0e2_Class39 ( obj_7ef051bf_adc1_47fa_91ac_b6bf10c21de9 o )  ) ) ( type_c24740d0_9eca_4bd5_8af2_381de58bb0e2_Class5 ( obj_7ef051bf_adc1_47fa_91ac_b6bf10c21de9 o )  ) )):named c16))
(assert (! (exists ((o Int)) (and (and ( type_c24740d0_9eca_4bd5_8af2_381de58bb0e2_Class24 ( obj_7ef051bf_adc1_47fa_91ac_b6bf10c21de9 o )  )  ( type_c24740d0_9eca_4bd5_8af2_381de58bb0e2_Class25 ( obj_7ef051bf_adc1_47fa_91ac_b6bf10c21de9 o )  ) ) ( type_c24740d0_9eca_4bd5_8af2_381de58bb0e2_Class39 ( obj_7ef051bf_adc1_47fa_91ac_b6bf10c21de9 o )  ) )):named c17))
(assert (! (exists ((o Int)) (and ( type_c24740d0_9eca_4bd5_8af2_381de58bb0e2_Class25 ( obj_7ef051bf_adc1_47fa_91ac_b6bf10c21de9 o )  )  ( type_c24740d0_9eca_4bd5_8af2_381de58bb0e2_Class39 ( obj_7ef051bf_adc1_47fa_91ac_b6bf10c21de9 o )  ) )):named c18))
(assert (! (exists ((o Int)) ( type_c24740d0_9eca_4bd5_8af2_381de58bb0e2_Class26 ( obj_7ef051bf_adc1_47fa_91ac_b6bf10c21de9 o )  ) ):named c19))
(assert (! (exists ((o Int)) ( type_c24740d0_9eca_4bd5_8af2_381de58bb0e2_Class27 ( obj_7ef051bf_adc1_47fa_91ac_b6bf10c21de9 o )  ) ):named c20))
(assert (! (exists ((o Int)) (and (and (and (and (and (and (and ( type_c24740d0_9eca_4bd5_8af2_381de58bb0e2_Class28 ( obj_7ef051bf_adc1_47fa_91ac_b6bf10c21de9 o )  )  ( type_c24740d0_9eca_4bd5_8af2_381de58bb0e2_Class45 ( obj_7ef051bf_adc1_47fa_91ac_b6bf10c21de9 o )  ) ) ( type_c24740d0_9eca_4bd5_8af2_381de58bb0e2_Class12 ( obj_7ef051bf_adc1_47fa_91ac_b6bf10c21de9 o )  ) ) ( type_c24740d0_9eca_4bd5_8af2_381de58bb0e2_Class33 ( obj_7ef051bf_adc1_47fa_91ac_b6bf10c21de9 o )  ) ) ( type_c24740d0_9eca_4bd5_8af2_381de58bb0e2_Class22 ( obj_7ef051bf_adc1_47fa_91ac_b6bf10c21de9 o )  ) ) ( type_c24740d0_9eca_4bd5_8af2_381de58bb0e2_Class29 ( obj_7ef051bf_adc1_47fa_91ac_b6bf10c21de9 o )  ) ) ( type_c24740d0_9eca_4bd5_8af2_381de58bb0e2_Class39 ( obj_7ef051bf_adc1_47fa_91ac_b6bf10c21de9 o )  ) ) ( type_c24740d0_9eca_4bd5_8af2_381de58bb0e2_Class41 ( obj_7ef051bf_adc1_47fa_91ac_b6bf10c21de9 o )  ) )):named c21))
(assert (! (exists ((o Int)) (and (and (and (and (and (and ( type_c24740d0_9eca_4bd5_8af2_381de58bb0e2_Class29 ( obj_7ef051bf_adc1_47fa_91ac_b6bf10c21de9 o )  )  ( type_c24740d0_9eca_4bd5_8af2_381de58bb0e2_Class45 ( obj_7ef051bf_adc1_47fa_91ac_b6bf10c21de9 o )  ) ) ( type_c24740d0_9eca_4bd5_8af2_381de58bb0e2_Class12 ( obj_7ef051bf_adc1_47fa_91ac_b6bf10c21de9 o )  ) ) ( type_c24740d0_9eca_4bd5_8af2_381de58bb0e2_Class33 ( obj_7ef051bf_adc1_47fa_91ac_b6bf10c21de9 o )  ) ) ( type_c24740d0_9eca_4bd5_8af2_381de58bb0e2_Class22 ( obj_7ef051bf_adc1_47fa_91ac_b6bf10c21de9 o )  ) ) ( type_c24740d0_9eca_4bd5_8af2_381de58bb0e2_Class39 ( obj_7ef051bf_adc1_47fa_91ac_b6bf10c21de9 o )  ) ) ( type_c24740d0_9eca_4bd5_8af2_381de58bb0e2_Class41 ( obj_7ef051bf_adc1_47fa_91ac_b6bf10c21de9 o )  ) )):named c22))
(assert (! (exists ((o Int)) (and (and (and ( type_c24740d0_9eca_4bd5_8af2_381de58bb0e2_Class3 ( obj_7ef051bf_adc1_47fa_91ac_b6bf10c21de9 o )  )  ( type_c24740d0_9eca_4bd5_8af2_381de58bb0e2_Class25 ( obj_7ef051bf_adc1_47fa_91ac_b6bf10c21de9 o )  ) ) ( type_c24740d0_9eca_4bd5_8af2_381de58bb0e2_Class24 ( obj_7ef051bf_adc1_47fa_91ac_b6bf10c21de9 o )  ) ) ( type_c24740d0_9eca_4bd5_8af2_381de58bb0e2_Class39 ( obj_7ef051bf_adc1_47fa_91ac_b6bf10c21de9 o )  ) )):named c23))
(assert (! (exists ((o Int)) (and ( type_c24740d0_9eca_4bd5_8af2_381de58bb0e2_Class30 ( obj_7ef051bf_adc1_47fa_91ac_b6bf10c21de9 o )  )  ( type_c24740d0_9eca_4bd5_8af2_381de58bb0e2_Class39 ( obj_7ef051bf_adc1_47fa_91ac_b6bf10c21de9 o )  ) )):named c24))
(assert (! (exists ((o Int)) (and (and (and (and (and ( type_c24740d0_9eca_4bd5_8af2_381de58bb0e2_Class31 ( obj_7ef051bf_adc1_47fa_91ac_b6bf10c21de9 o )  )  ( type_c24740d0_9eca_4bd5_8af2_381de58bb0e2_Class45 ( obj_7ef051bf_adc1_47fa_91ac_b6bf10c21de9 o )  ) ) ( type_c24740d0_9eca_4bd5_8af2_381de58bb0e2_Class12 ( obj_7ef051bf_adc1_47fa_91ac_b6bf10c21de9 o )  ) ) ( type_c24740d0_9eca_4bd5_8af2_381de58bb0e2_Class33 ( obj_7ef051bf_adc1_47fa_91ac_b6bf10c21de9 o )  ) ) ( type_c24740d0_9eca_4bd5_8af2_381de58bb0e2_Class22 ( obj_7ef051bf_adc1_47fa_91ac_b6bf10c21de9 o )  ) ) ( type_c24740d0_9eca_4bd5_8af2_381de58bb0e2_Class39 ( obj_7ef051bf_adc1_47fa_91ac_b6bf10c21de9 o )  ) )):named c25))
(assert (! (exists ((o Int)) ( type_c24740d0_9eca_4bd5_8af2_381de58bb0e2_Class32 ( obj_7ef051bf_adc1_47fa_91ac_b6bf10c21de9 o )  ) ):named c26))
(assert (! (exists ((o Int)) (and (and ( type_c24740d0_9eca_4bd5_8af2_381de58bb0e2_Class33 ( obj_7ef051bf_adc1_47fa_91ac_b6bf10c21de9 o )  )  ( type_c24740d0_9eca_4bd5_8af2_381de58bb0e2_Class22 ( obj_7ef051bf_adc1_47fa_91ac_b6bf10c21de9 o )  ) ) ( type_c24740d0_9eca_4bd5_8af2_381de58bb0e2_Class39 ( obj_7ef051bf_adc1_47fa_91ac_b6bf10c21de9 o )  ) )):named c27))
(assert (! (exists ((o Int)) (and (and (and ( type_c24740d0_9eca_4bd5_8af2_381de58bb0e2_Class34 ( obj_7ef051bf_adc1_47fa_91ac_b6bf10c21de9 o )  )  ( type_c24740d0_9eca_4bd5_8af2_381de58bb0e2_Class25 ( obj_7ef051bf_adc1_47fa_91ac_b6bf10c21de9 o )  ) ) ( type_c24740d0_9eca_4bd5_8af2_381de58bb0e2_Class24 ( obj_7ef051bf_adc1_47fa_91ac_b6bf10c21de9 o )  ) ) ( type_c24740d0_9eca_4bd5_8af2_381de58bb0e2_Class39 ( obj_7ef051bf_adc1_47fa_91ac_b6bf10c21de9 o )  ) )):named c28))
(assert (! (exists ((o Int)) (and (and ( type_c24740d0_9eca_4bd5_8af2_381de58bb0e2_Class35 ( obj_7ef051bf_adc1_47fa_91ac_b6bf10c21de9 o )  )  ( type_c24740d0_9eca_4bd5_8af2_381de58bb0e2_Class39 ( obj_7ef051bf_adc1_47fa_91ac_b6bf10c21de9 o )  ) ) ( type_c24740d0_9eca_4bd5_8af2_381de58bb0e2_Class30 ( obj_7ef051bf_adc1_47fa_91ac_b6bf10c21de9 o )  ) )):named c29))
(assert (! (exists ((o Int)) ( type_c24740d0_9eca_4bd5_8af2_381de58bb0e2_Class36 ( obj_7ef051bf_adc1_47fa_91ac_b6bf10c21de9 o )  ) ):named c30))
(assert (! (exists ((o Int)) ( type_c24740d0_9eca_4bd5_8af2_381de58bb0e2_Class37 ( obj_7ef051bf_adc1_47fa_91ac_b6bf10c21de9 o )  ) ):named c31))
(assert (! (exists ((o Int)) ( type_c24740d0_9eca_4bd5_8af2_381de58bb0e2_Class38 ( obj_7ef051bf_adc1_47fa_91ac_b6bf10c21de9 o )  ) ):named c32))
(assert (! (exists ((o Int)) ( type_c24740d0_9eca_4bd5_8af2_381de58bb0e2_Class39 ( obj_7ef051bf_adc1_47fa_91ac_b6bf10c21de9 o )  ) ):named c33))
(assert (! (exists ((o Int)) ( type_c24740d0_9eca_4bd5_8af2_381de58bb0e2_Class4 ( obj_7ef051bf_adc1_47fa_91ac_b6bf10c21de9 o )  ) ):named c34))
(assert (! (exists ((o Int)) (and (and (and (and (and (and (and (and (and ( type_c24740d0_9eca_4bd5_8af2_381de58bb0e2_Class40 ( obj_7ef051bf_adc1_47fa_91ac_b6bf10c21de9 o )  )  ( type_c24740d0_9eca_4bd5_8af2_381de58bb0e2_Class45 ( obj_7ef051bf_adc1_47fa_91ac_b6bf10c21de9 o )  ) ) ( type_c24740d0_9eca_4bd5_8af2_381de58bb0e2_Class12 ( obj_7ef051bf_adc1_47fa_91ac_b6bf10c21de9 o )  ) ) ( type_c24740d0_9eca_4bd5_8af2_381de58bb0e2_Class55 ( obj_7ef051bf_adc1_47fa_91ac_b6bf10c21de9 o )  ) ) ( type_c24740d0_9eca_4bd5_8af2_381de58bb0e2_Class33 ( obj_7ef051bf_adc1_47fa_91ac_b6bf10c21de9 o )  ) ) ( type_c24740d0_9eca_4bd5_8af2_381de58bb0e2_Class22 ( obj_7ef051bf_adc1_47fa_91ac_b6bf10c21de9 o )  ) ) ( type_c24740d0_9eca_4bd5_8af2_381de58bb0e2_Class29 ( obj_7ef051bf_adc1_47fa_91ac_b6bf10c21de9 o )  ) ) ( type_c24740d0_9eca_4bd5_8af2_381de58bb0e2_Class39 ( obj_7ef051bf_adc1_47fa_91ac_b6bf10c21de9 o )  ) ) ( type_c24740d0_9eca_4bd5_8af2_381de58bb0e2_Class50 ( obj_7ef051bf_adc1_47fa_91ac_b6bf10c21de9 o )  ) ) ( type_c24740d0_9eca_4bd5_8af2_381de58bb0e2_Class41 ( obj_7ef051bf_adc1_47fa_91ac_b6bf10c21de9 o )  ) )):named c35))
(assert (! (exists ((o Int)) (and (and (and (and (and ( type_c24740d0_9eca_4bd5_8af2_381de58bb0e2_Class41 ( obj_7ef051bf_adc1_47fa_91ac_b6bf10c21de9 o )  )  ( type_c24740d0_9eca_4bd5_8af2_381de58bb0e2_Class45 ( obj_7ef051bf_adc1_47fa_91ac_b6bf10c21de9 o )  ) ) ( type_c24740d0_9eca_4bd5_8af2_381de58bb0e2_Class12 ( obj_7ef051bf_adc1_47fa_91ac_b6bf10c21de9 o )  ) ) ( type_c24740d0_9eca_4bd5_8af2_381de58bb0e2_Class33 ( obj_7ef051bf_adc1_47fa_91ac_b6bf10c21de9 o )  ) ) ( type_c24740d0_9eca_4bd5_8af2_381de58bb0e2_Class22 ( obj_7ef051bf_adc1_47fa_91ac_b6bf10c21de9 o )  ) ) ( type_c24740d0_9eca_4bd5_8af2_381de58bb0e2_Class39 ( obj_7ef051bf_adc1_47fa_91ac_b6bf10c21de9 o )  ) )):named c36))
(assert (! (exists ((o Int)) (and ( type_c24740d0_9eca_4bd5_8af2_381de58bb0e2_Class42 ( obj_7ef051bf_adc1_47fa_91ac_b6bf10c21de9 o )  )  ( type_c24740d0_9eca_4bd5_8af2_381de58bb0e2_Class39 ( obj_7ef051bf_adc1_47fa_91ac_b6bf10c21de9 o )  ) )):named c37))
(assert (! (exists ((o Int)) ( type_c24740d0_9eca_4bd5_8af2_381de58bb0e2_Class43 ( obj_7ef051bf_adc1_47fa_91ac_b6bf10c21de9 o )  ) ):named c38))
(assert (! (exists ((o Int)) (and (and (and (and (and (and (and ( type_c24740d0_9eca_4bd5_8af2_381de58bb0e2_Class44 ( obj_7ef051bf_adc1_47fa_91ac_b6bf10c21de9 o )  )  ( type_c24740d0_9eca_4bd5_8af2_381de58bb0e2_Class45 ( obj_7ef051bf_adc1_47fa_91ac_b6bf10c21de9 o )  ) ) ( type_c24740d0_9eca_4bd5_8af2_381de58bb0e2_Class12 ( obj_7ef051bf_adc1_47fa_91ac_b6bf10c21de9 o )  ) ) ( type_c24740d0_9eca_4bd5_8af2_381de58bb0e2_Class33 ( obj_7ef051bf_adc1_47fa_91ac_b6bf10c21de9 o )  ) ) ( type_c24740d0_9eca_4bd5_8af2_381de58bb0e2_Class22 ( obj_7ef051bf_adc1_47fa_91ac_b6bf10c21de9 o )  ) ) ( type_c24740d0_9eca_4bd5_8af2_381de58bb0e2_Class29 ( obj_7ef051bf_adc1_47fa_91ac_b6bf10c21de9 o )  ) ) ( type_c24740d0_9eca_4bd5_8af2_381de58bb0e2_Class39 ( obj_7ef051bf_adc1_47fa_91ac_b6bf10c21de9 o )  ) ) ( type_c24740d0_9eca_4bd5_8af2_381de58bb0e2_Class41 ( obj_7ef051bf_adc1_47fa_91ac_b6bf10c21de9 o )  ) )):named c39))
(assert (! (exists ((o Int)) (and (and (and (and ( type_c24740d0_9eca_4bd5_8af2_381de58bb0e2_Class45 ( obj_7ef051bf_adc1_47fa_91ac_b6bf10c21de9 o )  )  ( type_c24740d0_9eca_4bd5_8af2_381de58bb0e2_Class12 ( obj_7ef051bf_adc1_47fa_91ac_b6bf10c21de9 o )  ) ) ( type_c24740d0_9eca_4bd5_8af2_381de58bb0e2_Class33 ( obj_7ef051bf_adc1_47fa_91ac_b6bf10c21de9 o )  ) ) ( type_c24740d0_9eca_4bd5_8af2_381de58bb0e2_Class22 ( obj_7ef051bf_adc1_47fa_91ac_b6bf10c21de9 o )  ) ) ( type_c24740d0_9eca_4bd5_8af2_381de58bb0e2_Class39 ( obj_7ef051bf_adc1_47fa_91ac_b6bf10c21de9 o )  ) )):named c40))
(assert (! (exists ((o Int)) (and (and ( type_c24740d0_9eca_4bd5_8af2_381de58bb0e2_Class46 ( obj_7ef051bf_adc1_47fa_91ac_b6bf10c21de9 o )  )  ( type_c24740d0_9eca_4bd5_8af2_381de58bb0e2_Class39 ( obj_7ef051bf_adc1_47fa_91ac_b6bf10c21de9 o )  ) ) ( type_c24740d0_9eca_4bd5_8af2_381de58bb0e2_Class5 ( obj_7ef051bf_adc1_47fa_91ac_b6bf10c21de9 o )  ) )):named c41))
(assert (! (exists ((o Int)) ( type_c24740d0_9eca_4bd5_8af2_381de58bb0e2_Class47 ( obj_7ef051bf_adc1_47fa_91ac_b6bf10c21de9 o )  ) ):named c42))
(assert (! (exists ((o Int)) (and (and (and (and (and (and (and (and (and ( type_c24740d0_9eca_4bd5_8af2_381de58bb0e2_Class48 ( obj_7ef051bf_adc1_47fa_91ac_b6bf10c21de9 o )  )  ( type_c24740d0_9eca_4bd5_8af2_381de58bb0e2_Class45 ( obj_7ef051bf_adc1_47fa_91ac_b6bf10c21de9 o )  ) ) ( type_c24740d0_9eca_4bd5_8af2_381de58bb0e2_Class12 ( obj_7ef051bf_adc1_47fa_91ac_b6bf10c21de9 o )  ) ) ( type_c24740d0_9eca_4bd5_8af2_381de58bb0e2_Class55 ( obj_7ef051bf_adc1_47fa_91ac_b6bf10c21de9 o )  ) ) ( type_c24740d0_9eca_4bd5_8af2_381de58bb0e2_Class33 ( obj_7ef051bf_adc1_47fa_91ac_b6bf10c21de9 o )  ) ) ( type_c24740d0_9eca_4bd5_8af2_381de58bb0e2_Class22 ( obj_7ef051bf_adc1_47fa_91ac_b6bf10c21de9 o )  ) ) ( type_c24740d0_9eca_4bd5_8af2_381de58bb0e2_Class29 ( obj_7ef051bf_adc1_47fa_91ac_b6bf10c21de9 o )  ) ) ( type_c24740d0_9eca_4bd5_8af2_381de58bb0e2_Class39 ( obj_7ef051bf_adc1_47fa_91ac_b6bf10c21de9 o )  ) ) ( type_c24740d0_9eca_4bd5_8af2_381de58bb0e2_Class50 ( obj_7ef051bf_adc1_47fa_91ac_b6bf10c21de9 o )  ) ) ( type_c24740d0_9eca_4bd5_8af2_381de58bb0e2_Class41 ( obj_7ef051bf_adc1_47fa_91ac_b6bf10c21de9 o )  ) )):named c43))
(assert (! (exists ((o Int)) (and (and (and (and (and (and (and (and (and ( type_c24740d0_9eca_4bd5_8af2_381de58bb0e2_Class49 ( obj_7ef051bf_adc1_47fa_91ac_b6bf10c21de9 o )  )  ( type_c24740d0_9eca_4bd5_8af2_381de58bb0e2_Class45 ( obj_7ef051bf_adc1_47fa_91ac_b6bf10c21de9 o )  ) ) ( type_c24740d0_9eca_4bd5_8af2_381de58bb0e2_Class12 ( obj_7ef051bf_adc1_47fa_91ac_b6bf10c21de9 o )  ) ) ( type_c24740d0_9eca_4bd5_8af2_381de58bb0e2_Class55 ( obj_7ef051bf_adc1_47fa_91ac_b6bf10c21de9 o )  ) ) ( type_c24740d0_9eca_4bd5_8af2_381de58bb0e2_Class33 ( obj_7ef051bf_adc1_47fa_91ac_b6bf10c21de9 o )  ) ) ( type_c24740d0_9eca_4bd5_8af2_381de58bb0e2_Class22 ( obj_7ef051bf_adc1_47fa_91ac_b6bf10c21de9 o )  ) ) ( type_c24740d0_9eca_4bd5_8af2_381de58bb0e2_Class29 ( obj_7ef051bf_adc1_47fa_91ac_b6bf10c21de9 o )  ) ) ( type_c24740d0_9eca_4bd5_8af2_381de58bb0e2_Class39 ( obj_7ef051bf_adc1_47fa_91ac_b6bf10c21de9 o )  ) ) ( type_c24740d0_9eca_4bd5_8af2_381de58bb0e2_Class50 ( obj_7ef051bf_adc1_47fa_91ac_b6bf10c21de9 o )  ) ) ( type_c24740d0_9eca_4bd5_8af2_381de58bb0e2_Class41 ( obj_7ef051bf_adc1_47fa_91ac_b6bf10c21de9 o )  ) )):named c44))
(assert (! (exists ((o Int)) (and ( type_c24740d0_9eca_4bd5_8af2_381de58bb0e2_Class5 ( obj_7ef051bf_adc1_47fa_91ac_b6bf10c21de9 o )  )  ( type_c24740d0_9eca_4bd5_8af2_381de58bb0e2_Class39 ( obj_7ef051bf_adc1_47fa_91ac_b6bf10c21de9 o )  ) )):named c45))
(assert (! (exists ((o Int)) (and (and (and (and (and (and (and (and ( type_c24740d0_9eca_4bd5_8af2_381de58bb0e2_Class50 ( obj_7ef051bf_adc1_47fa_91ac_b6bf10c21de9 o )  )  ( type_c24740d0_9eca_4bd5_8af2_381de58bb0e2_Class45 ( obj_7ef051bf_adc1_47fa_91ac_b6bf10c21de9 o )  ) ) ( type_c24740d0_9eca_4bd5_8af2_381de58bb0e2_Class12 ( obj_7ef051bf_adc1_47fa_91ac_b6bf10c21de9 o )  ) ) ( type_c24740d0_9eca_4bd5_8af2_381de58bb0e2_Class55 ( obj_7ef051bf_adc1_47fa_91ac_b6bf10c21de9 o )  ) ) ( type_c24740d0_9eca_4bd5_8af2_381de58bb0e2_Class33 ( obj_7ef051bf_adc1_47fa_91ac_b6bf10c21de9 o )  ) ) ( type_c24740d0_9eca_4bd5_8af2_381de58bb0e2_Class22 ( obj_7ef051bf_adc1_47fa_91ac_b6bf10c21de9 o )  ) ) ( type_c24740d0_9eca_4bd5_8af2_381de58bb0e2_Class29 ( obj_7ef051bf_adc1_47fa_91ac_b6bf10c21de9 o )  ) ) ( type_c24740d0_9eca_4bd5_8af2_381de58bb0e2_Class39 ( obj_7ef051bf_adc1_47fa_91ac_b6bf10c21de9 o )  ) ) ( type_c24740d0_9eca_4bd5_8af2_381de58bb0e2_Class41 ( obj_7ef051bf_adc1_47fa_91ac_b6bf10c21de9 o )  ) )):named c46))
(assert (! (exists ((o Int)) (and (and (and (and (and (and ( type_c24740d0_9eca_4bd5_8af2_381de58bb0e2_Class51 ( obj_7ef051bf_adc1_47fa_91ac_b6bf10c21de9 o )  )  ( type_c24740d0_9eca_4bd5_8af2_381de58bb0e2_Class45 ( obj_7ef051bf_adc1_47fa_91ac_b6bf10c21de9 o )  ) ) ( type_c24740d0_9eca_4bd5_8af2_381de58bb0e2_Class12 ( obj_7ef051bf_adc1_47fa_91ac_b6bf10c21de9 o )  ) ) ( type_c24740d0_9eca_4bd5_8af2_381de58bb0e2_Class33 ( obj_7ef051bf_adc1_47fa_91ac_b6bf10c21de9 o )  ) ) ( type_c24740d0_9eca_4bd5_8af2_381de58bb0e2_Class22 ( obj_7ef051bf_adc1_47fa_91ac_b6bf10c21de9 o )  ) ) ( type_c24740d0_9eca_4bd5_8af2_381de58bb0e2_Class16 ( obj_7ef051bf_adc1_47fa_91ac_b6bf10c21de9 o )  ) ) ( type_c24740d0_9eca_4bd5_8af2_381de58bb0e2_Class39 ( obj_7ef051bf_adc1_47fa_91ac_b6bf10c21de9 o )  ) )):named c47))
(assert (! (exists ((o Int)) (and (and (and (and (and ( type_c24740d0_9eca_4bd5_8af2_381de58bb0e2_Class52 ( obj_7ef051bf_adc1_47fa_91ac_b6bf10c21de9 o )  )  ( type_c24740d0_9eca_4bd5_8af2_381de58bb0e2_Class45 ( obj_7ef051bf_adc1_47fa_91ac_b6bf10c21de9 o )  ) ) ( type_c24740d0_9eca_4bd5_8af2_381de58bb0e2_Class12 ( obj_7ef051bf_adc1_47fa_91ac_b6bf10c21de9 o )  ) ) ( type_c24740d0_9eca_4bd5_8af2_381de58bb0e2_Class33 ( obj_7ef051bf_adc1_47fa_91ac_b6bf10c21de9 o )  ) ) ( type_c24740d0_9eca_4bd5_8af2_381de58bb0e2_Class22 ( obj_7ef051bf_adc1_47fa_91ac_b6bf10c21de9 o )  ) ) ( type_c24740d0_9eca_4bd5_8af2_381de58bb0e2_Class39 ( obj_7ef051bf_adc1_47fa_91ac_b6bf10c21de9 o )  ) )):named c48))
(assert (! (exists ((o Int)) ( type_c24740d0_9eca_4bd5_8af2_381de58bb0e2_Class53 ( obj_7ef051bf_adc1_47fa_91ac_b6bf10c21de9 o )  ) ):named c49))
(assert (! (exists ((o Int)) ( type_c24740d0_9eca_4bd5_8af2_381de58bb0e2_Class54 ( obj_7ef051bf_adc1_47fa_91ac_b6bf10c21de9 o )  ) ):named c50))
(assert (! (exists ((o Int)) (and (and (and (and (and (and (and ( type_c24740d0_9eca_4bd5_8af2_381de58bb0e2_Class55 ( obj_7ef051bf_adc1_47fa_91ac_b6bf10c21de9 o )  )  ( type_c24740d0_9eca_4bd5_8af2_381de58bb0e2_Class45 ( obj_7ef051bf_adc1_47fa_91ac_b6bf10c21de9 o )  ) ) ( type_c24740d0_9eca_4bd5_8af2_381de58bb0e2_Class12 ( obj_7ef051bf_adc1_47fa_91ac_b6bf10c21de9 o )  ) ) ( type_c24740d0_9eca_4bd5_8af2_381de58bb0e2_Class33 ( obj_7ef051bf_adc1_47fa_91ac_b6bf10c21de9 o )  ) ) ( type_c24740d0_9eca_4bd5_8af2_381de58bb0e2_Class22 ( obj_7ef051bf_adc1_47fa_91ac_b6bf10c21de9 o )  ) ) ( type_c24740d0_9eca_4bd5_8af2_381de58bb0e2_Class29 ( obj_7ef051bf_adc1_47fa_91ac_b6bf10c21de9 o )  ) ) ( type_c24740d0_9eca_4bd5_8af2_381de58bb0e2_Class39 ( obj_7ef051bf_adc1_47fa_91ac_b6bf10c21de9 o )  ) ) ( type_c24740d0_9eca_4bd5_8af2_381de58bb0e2_Class41 ( obj_7ef051bf_adc1_47fa_91ac_b6bf10c21de9 o )  ) )):named c51))
(assert (! (exists ((o Int)) ( type_c24740d0_9eca_4bd5_8af2_381de58bb0e2_Class6 ( obj_7ef051bf_adc1_47fa_91ac_b6bf10c21de9 o )  ) ):named c52))
(assert (! (exists ((o Int)) (and (and (and (and (and (and (and (and (and ( type_c24740d0_9eca_4bd5_8af2_381de58bb0e2_Class7 ( obj_7ef051bf_adc1_47fa_91ac_b6bf10c21de9 o )  )  ( type_c24740d0_9eca_4bd5_8af2_381de58bb0e2_Class45 ( obj_7ef051bf_adc1_47fa_91ac_b6bf10c21de9 o )  ) ) ( type_c24740d0_9eca_4bd5_8af2_381de58bb0e2_Class12 ( obj_7ef051bf_adc1_47fa_91ac_b6bf10c21de9 o )  ) ) ( type_c24740d0_9eca_4bd5_8af2_381de58bb0e2_Class55 ( obj_7ef051bf_adc1_47fa_91ac_b6bf10c21de9 o )  ) ) ( type_c24740d0_9eca_4bd5_8af2_381de58bb0e2_Class33 ( obj_7ef051bf_adc1_47fa_91ac_b6bf10c21de9 o )  ) ) ( type_c24740d0_9eca_4bd5_8af2_381de58bb0e2_Class22 ( obj_7ef051bf_adc1_47fa_91ac_b6bf10c21de9 o )  ) ) ( type_c24740d0_9eca_4bd5_8af2_381de58bb0e2_Class29 ( obj_7ef051bf_adc1_47fa_91ac_b6bf10c21de9 o )  ) ) ( type_c24740d0_9eca_4bd5_8af2_381de58bb0e2_Class39 ( obj_7ef051bf_adc1_47fa_91ac_b6bf10c21de9 o )  ) ) ( type_c24740d0_9eca_4bd5_8af2_381de58bb0e2_Class50 ( obj_7ef051bf_adc1_47fa_91ac_b6bf10c21de9 o )  ) ) ( type_c24740d0_9eca_4bd5_8af2_381de58bb0e2_Class41 ( obj_7ef051bf_adc1_47fa_91ac_b6bf10c21de9 o )  ) )):named c53))
(assert (! (exists ((o Int)) (and ( type_c24740d0_9eca_4bd5_8af2_381de58bb0e2_Class8 ( obj_7ef051bf_adc1_47fa_91ac_b6bf10c21de9 o )  )  ( type_c24740d0_9eca_4bd5_8af2_381de58bb0e2_Class39 ( obj_7ef051bf_adc1_47fa_91ac_b6bf10c21de9 o )  ) )):named c54))
(assert (! (exists ((o Int)) ( type_c24740d0_9eca_4bd5_8af2_381de58bb0e2_Class9 ( obj_7ef051bf_adc1_47fa_91ac_b6bf10c21de9 o )  ) ):named c55))

 ;end of formula 